# Objective value = 19
x1 0
x2 1
x3 0
x4 0
x5 0
x6 0
x7 0
x8 0
x9 0
x10 1
x11 0
x12 0
x13 1
x14 0
x15 0
x16 0
x17 0
x18 0
x19 0
x20 1
x21 0
x22 0
x23 0
x24 0
x25 0
x26 0
x27 0
x28 1
x29 0
x30 0
x31 0
x32 0
x33 0
x34 0
x35 1
x36 0
x37 0
x38 0
x39 0
x40 0
x41 0
x42 0
x43 0
x44 0
x45 0
x46 0
x47 0
x48 1
x49 0
x50 0
x51 0
x52 0
x53 1
x54 0
x55 0
x56 0
x57 0
x58 1
x59 0
x60 0
x61 1
x62 0
x63 0
x64 0
x65 0
x66 0
x67 0
x68 0
x69 0
x70 0
x71 1
x72 0
x73 0
x74 0
x75 0
x76 0
x77 0
x78 1
x79 0
x80 0
x81 1
x82 0
x83 1
x84 0
x85 0
x86 0
x87 0
x88 0
x89 0
x90 1
x91 0
x92 0
x93 0
x94 0
x95 0
x96 0
x97 0
x98 0
x99 0
x100 1
x101 0
x102 0
x103 1
x104 0
x105 0
x106 0
x107 0
x108 0
x109 0
x110 0
x111 0
x112 1
x113 0
x114 0
x115 1
x116 0
x117 0
x118 0
x119 0
x120 0
